(set-info :smt-lib-version 2.6)
(set-logic QF_NRA)
(set-info :source |
Generated by: Tobias Winkler
Generated on: 2024-04-07
Generator: PRAY - Probabilistic Recursion Analyzer (https://doi.org/10.5281/zenodo.7506305)
Application: Termination analysis of probabilistic pushdown automata (pPDA)
Target solver: Z3
Publications:
  [1] Tobias Winkler, Joost-Pieter Katoen: On Certificates, Expected Runtimes, and Termination in Probabilistic Pushdown Automata. LICS 2023: 1-13

This benchmark encodes positive almost sure termination (PAST; reaching the empty stack in finite expected time) of the probabilistic pushdown automaton (pPDA) from Fig. 4 in [1] with n=10.
Even though the pPDA has only 3 states and 12 stack symbols, it runs approximately 2^(2^n) = 2^1024 steps on average before it reaches the empty stack.

The SMT formula results from applying Theorem 8 from [1] (with equalities instead of inequalities). The SMT formula is SAT iff the automaton is PAST.

|)
(set-info :license "https://creativecommons.org/licenses/by/4.0/")
(set-info :category "industrial")
(set-info :status sat)

(declare-fun |(s,Z10,r)| () Real)
(declare-fun |(s,X,s)| () Real)
(declare-fun |(s,X,r)| () Real)
(declare-fun |(r,X,r)| () Real)
(declare-fun |(r, Z9)| () Real)
(declare-fun |(r,Z10,s)| () Real)
(declare-fun |(s, Z10)| () Real)
(declare-fun |(r,Z10,r)| () Real)
(declare-fun |(r, Z10)| () Real)
(declare-fun |(p,Y,p)| () Real)
(declare-fun |(s,Z1,s)| () Real)
(declare-fun |(s,Y,p)| () Real)
(declare-fun |(s,Z1,r)| () Real)
(declare-fun |(r,Y,p)| () Real)
(declare-fun |(s,Z7,r)| () Real)
(declare-fun |(s,Z8,s)| () Real)
(declare-fun |(s,Z8,r)| () Real)
(declare-fun |(r,Z8,r)| () Real)
(declare-fun |(r, Y)| () Real)
(declare-fun |(p,Y,s)| () Real)
(declare-fun |(s, Y)| () Real)
(declare-fun |(p,Y,r)| () Real)
(declare-fun |(p, Y)| () Real)
(declare-fun |(r, Z3)| () Real)
(declare-fun |(r,Z4,s)| () Real)
(declare-fun |(s, Z4)| () Real)
(declare-fun |(r,Z4,r)| () Real)
(declare-fun |(r, Z4)| () Real)
(declare-fun |(r,Z9,s)| () Real)
(declare-fun |(s,Z10,s)| () Real)
(declare-fun |(r,Z9,r)| () Real)
(declare-fun |(r,X,s)| () Real)
(declare-fun |(r,Y,r)| () Real)
(declare-fun |(s,Z3,r)| () Real)
(declare-fun |(s,Z4,s)| () Real)
(declare-fun |(s,Z4,r)| () Real)
(declare-fun |(r,Y,s)| () Real)
(declare-fun |(r,Z5,s)| () Real)
(declare-fun |(r,Z6,s)| () Real)
(declare-fun |(s,Z6,s)| () Real)
(declare-fun |(r,Z6,r)| () Real)
(declare-fun |(r,Z5,r)| () Real)
(declare-fun |(s,Z6,r)| () Real)
(declare-fun |(s,Z7,s)| () Real)
(declare-fun |(r,Z8,s)| () Real)
(declare-fun |(r,Z1,s)| () Real)
(declare-fun |(r,Z2,s)| () Real)
(declare-fun |(s,Z2,s)| () Real)
(declare-fun |(r,Z2,r)| () Real)
(declare-fun |(r,Z1,r)| () Real)
(declare-fun |(s,Z2,r)| () Real)
(declare-fun |(s,Z3,s)| () Real)
(declare-fun |(p, Z8)| () Real)
(declare-fun |(s, Z6)| () Real)
(declare-fun |(s, Z7)| () Real)
(declare-fun |(r, Z7)| () Real)
(declare-fun |(p, Z5)| () Real)
(declare-fun |(s, Z3)| () Real)
(declare-fun |(s, Z9)| () Real)
(declare-fun |(r,Z7,s)| () Real)
(declare-fun |(r,Z7,r)| () Real)
(declare-fun |(s,Z9,s)| () Real)
(declare-fun |(s,Z9,r)| () Real)
(declare-fun |(s, Z8)| () Real)
(declare-fun |(r, Z8)| () Real)
(declare-fun |(s, Z1)| () Real)
(declare-fun |(s, Z2)| () Real)
(declare-fun |(r, Z2)| () Real)
(declare-fun |(r,Z3,s)| () Real)
(declare-fun |(r,Z3,r)| () Real)
(declare-fun |(s,Z5,s)| () Real)
(declare-fun |(s,Z5,r)| () Real)
(declare-fun |(s, Z5)| () Real)
(declare-fun |(r, Z5)| () Real)
(declare-fun |(p, X)| () Real)
(declare-fun |(s, X)| () Real)
(declare-fun |(r, X)| () Real)
(declare-fun |(r, Z1)| () Real)
(declare-fun |(p, Z6)| () Real)
(declare-fun |(p, Z9)| () Real)
(declare-fun |(p, Z2)| () Real)
(declare-fun |(p, Z3)| () Real)
(declare-fun |(r, Z6)| () Real)
(declare-fun |(p, Z10)| () Real)
(declare-fun |(p, Z7)| () Real)
(declare-fun |(p, Z1)| () Real)
(declare-fun |(p, Z4)| () Real)
(assert (>= |(s,Z10,r)| 0.0))
(assert (= |(s,Z10,r)| (+ 0.0 (* |(r,X,r)| |(s,X,r)| 1.0) (* |(s,X,r)| |(s,X,s)| 1.0))))
(assert (>= |(r, Z9)| 0.0))
(assert (= |(r, Z9)|
   (+ 0.0
      1.0
      (* |(r, Z10)| 1.0)
      (* |(r, Z10)| |(r,Z10,r)| 1.0)
      (* |(s, Z10)| |(r,Z10,s)| 1.0))))
(assert (>= |(p,Y,p)| 0.0))
(assert (= |(p,Y,p)| (+ 0.0 (* |(r,Y,p)| |(s,Z1,r)| 1.0) (* |(s,Y,p)| |(s,Z1,s)| 1.0))))
(assert (>= |(s,Z7,r)| 0.0))
(assert (= |(s,Z7,r)|
   (+ 0.0 (* |(r,Z8,r)| |(s,Z8,r)| 1.0) (* |(s,Z8,r)| |(s,Z8,s)| 1.0))))
(assert (>= |(r, Y)| 0.0))
(assert (= |(r, Y)|
   (+ 0.0
      1.0
      (* |(p, Y)| 1.0)
      (* |(p, Y)| |(p,Y,p)| 1.0)
      (* |(r, Y)| |(p,Y,r)| 1.0)
      (* |(s, Y)| |(p,Y,s)| 1.0))))
(assert (>= |(r, Z3)| 0.0))
(assert (= |(r, Z3)|
   (+ 0.0
      1.0
      (* |(r, Z4)| 1.0)
      (* |(r, Z4)| |(r,Z4,r)| 1.0)
      (* |(s, Z4)| |(r,Z4,s)| 1.0))))
(assert (>= |(r,Z9,s)| 0.0))
(assert (= |(r,Z9,s)|
   (+ 0.0 (* |(r,Z10,s)| |(r,Z10,r)| 1.0) (* |(s,Z10,s)| |(r,Z10,s)| 1.0))))
(assert (>= |(r,Z9,r)| 0.0))
(assert (= |(r,Z9,r)|
   (+ 0.0 (* |(r,Z10,r)| |(r,Z10,r)| 1.0) (* |(s,Z10,r)| |(r,Z10,s)| 1.0))))
(assert (>= |(s,Z10,s)| 0.0))
(assert (= |(s,Z10,s)| (+ 0.0 (* |(r,X,s)| |(s,X,r)| 1.0) (* |(s,X,s)| |(s,X,s)| 1.0))))
(assert (>= |(r,Y,r)| 0.0))
(assert (= |(r,Y,r)| (+ 0.0 (* |(p,Y,r)| |(p,Y,p)| 1.0) (* |(r,Y,r)| |(p,Y,r)| 1.0))))
(assert (>= |(s,Z3,r)| 0.0))
(assert (= |(s,Z3,r)|
   (+ 0.0 (* |(r,Z4,r)| |(s,Z4,r)| 1.0) (* |(s,Z4,r)| |(s,Z4,s)| 1.0))))
(assert (>= |(r,Y,s)| 0.0))
(assert (= |(r,Y,s)| (+ 0.0 (* |(p,Y,s)| |(p,Y,p)| 1.0) (* |(r,Y,s)| |(p,Y,r)| 1.0))))
(assert (>= |(p,Y,r)| 0.0))
(assert (= |(p,Y,r)| (+ 0.0 (* |(r,Y,r)| |(s,Z1,r)| 1.0))))
(assert (>= |(r,Z5,s)| 0.0))
(assert (= |(r,Z5,s)|
   (+ 0.0 (* |(r,Z6,s)| |(r,Z6,r)| 1.0) (* |(s,Z6,s)| |(r,Z6,s)| 1.0))))
(assert (>= |(r,Y,p)| 0.0))
(assert (= |(r,Y,p)|
   (+ 0.0
      (* |(p,Y,p)| |(p,Y,p)| 1.0)
      (* |(r,Y,p)| |(p,Y,r)| 1.0)
      (* |(s,Y,p)| |(p,Y,s)| 1.0))))
(assert (>= |(p,Y,s)| 0.0))
(assert (= |(p,Y,s)| (+ 0.0 (* |(r,Y,s)| |(s,Z1,r)| 1.0))))
(assert (>= |(r,Z5,r)| 0.0))
(assert (= |(r,Z5,r)|
   (+ 0.0 (* |(r,Z6,r)| |(r,Z6,r)| 1.0) (* |(s,Z6,r)| |(r,Z6,s)| 1.0))))
(assert (>= |(s,Z7,s)| 0.0))
(assert (= |(s,Z7,s)|
   (+ 0.0 (* |(r,Z8,s)| |(s,Z8,r)| 1.0) (* |(s,Z8,s)| |(s,Z8,s)| 1.0))))
(assert (>= |(r,Z1,s)| 0.0))
(assert (= |(r,Z1,s)|
   (+ 0.0 (* |(r,Z2,s)| |(r,Z2,r)| 1.0) (* |(s,Z2,s)| |(r,Z2,s)| 1.0))))
(assert (>= |(r,Z1,r)| 0.0))
(assert (= |(r,Z1,r)|
   (+ 0.0 (* |(r,Z2,r)| |(r,Z2,r)| 1.0) (* |(s,Z2,r)| |(r,Z2,s)| 1.0))))
(assert (>= |(s,Z3,s)| 0.0))
(assert (= |(s,Z3,s)|
   (+ 0.0 (* |(r,Z4,s)| |(s,Z4,r)| 1.0) (* |(s,Z4,s)| |(s,Z4,s)| 1.0))))
(assert (>= |(p, Z8)| 0.0))
(assert (= |(p, Z8)| (+ 0.0 1.0)))
(assert (>= |(s, Z6)| 0.0))
(assert (= |(s, Z6)|
   (+ 0.0
      1.0
      (* |(s, Z7)| 1.0)
      (* |(r, Z7)| |(s,Z7,r)| 1.0)
      (* |(s, Z7)| |(s,Z7,s)| 1.0))))
(assert (>= |(p, Z5)| 0.0))
(assert (= |(p, Z5)| (+ 0.0 1.0)))
(assert (>= |(s, Z3)| 0.0))
(assert (= |(s, Z3)|
   (+ 0.0
      1.0
      (* |(s, Z4)| 1.0)
      (* |(r, Z4)| |(s,Z4,r)| 1.0)
      (* |(s, Z4)| |(s,Z4,s)| 1.0))))
(assert (>= |(s, Z9)| 0.0))
(assert (= |(s, Z9)|
   (+ 0.0
      1.0
      (* |(s, Z10)| 1.0)
      (* |(r, Z10)| |(s,Z10,r)| 1.0)
      (* |(s, Z10)| |(s,Z10,s)| 1.0))))
(assert (>= |(r,Z6,r)| 0.0))
(assert (= |(r,Z6,r)|
   (+ 0.0 (* |(r,Z7,r)| |(r,Z7,r)| 1.0) (* |(s,Z7,r)| |(r,Z7,s)| 1.0))))
(assert (>= |(s,Z8,s)| 0.0))
(assert (= |(s,Z8,s)|
   (+ 0.0 (* |(r,Z9,s)| |(s,Z9,r)| 1.0) (* |(s,Z9,s)| |(s,Z9,s)| 1.0))))
(assert (>= |(s,Z8,r)| 0.0))
(assert (= |(s,Z8,r)|
   (+ 0.0 (* |(r,Z9,r)| |(s,Z9,r)| 1.0) (* |(s,Z9,r)| |(s,Z9,s)| 1.0))))
(assert (>= |(r, Z7)| 0.0))
(assert (= |(r, Z7)|
   (+ 0.0
      1.0
      (* |(r, Z8)| 1.0)
      (* |(r, Z8)| |(r,Z8,r)| 1.0)
      (* |(s, Z8)| |(r,Z8,s)| 1.0))))
(assert (>= |(s, Z1)| 0.0))
(assert (= |(s, Z1)|
   (+ 0.0
      1.0
      (* |(s, Z2)| 1.0)
      (* |(r, Z2)| |(s,Z2,r)| 1.0)
      (* |(s, Z2)| |(s,Z2,s)| 1.0))))
(assert (>= |(r,Z2,r)| 0.0))
(assert (= |(r,Z2,r)|
   (+ 0.0 (* |(r,Z3,r)| |(r,Z3,r)| 1.0) (* |(s,Z3,r)| |(r,Z3,s)| 1.0))))
(assert (>= |(s,Z4,s)| 0.0))
(assert (= |(s,Z4,s)|
   (+ 0.0 (* |(r,Z5,s)| |(s,Z5,r)| 1.0) (* |(s,Z5,s)| |(s,Z5,s)| 1.0))))
(assert (>= |(s,Z4,r)| 0.0))
(assert (= |(s,Z4,r)|
   (+ 0.0 (* |(r,Z5,r)| |(s,Z5,r)| 1.0) (* |(s,Z5,r)| |(s,Z5,s)| 1.0))))
(assert (>= |(r, Z4)| 0.0))
(assert (= |(r, Z4)|
   (+ 0.0
      1.0
      (* |(r, Z5)| 1.0)
      (* |(r, Z5)| |(r,Z5,r)| 1.0)
      (* |(s, Z5)| |(r,Z5,s)| 1.0))))
(assert (>= |(r,Z6,s)| 0.0))
(assert (= |(r,Z6,s)|
   (+ 0.0 (* |(r,Z7,s)| |(r,Z7,r)| 1.0) (* |(s,Z7,s)| |(r,Z7,s)| 1.0))))
(assert (>= |(s,X,r)| 0.0))
(assert (= |(s,X,r)| (+ 0.0 (/ 1.0 4.0))))
(assert (>= |(s,X,s)| 0.0))
(assert (= |(s,X,s)| (+ 0.0 (/ 3.0 4.0))))
(assert (>= |(r,Z2,s)| 0.0))
(assert (= |(r,Z2,s)|
   (+ 0.0 (* |(r,Z3,s)| |(r,Z3,r)| 1.0) (* |(s,Z3,s)| |(r,Z3,s)| 1.0))))
(assert (>= |(p, X)| 0.0))
(assert (= |(p, X)| (+ 0.0 1.0)))
(assert (>= |(s, Z10)| 0.0))
(assert (= |(s, Z10)|
   (+ 0.0
      1.0
      (* |(s, X)| 1.0)
      (* |(r, X)| |(s,X,r)| 1.0)
      (* |(s, X)| |(s,X,s)| 1.0))))
(assert (>= |(s, X)| 0.0))
(assert (= |(s, X)| (+ 0.0 1.0)))
(assert (>= |(r, Z1)| 0.0))
(assert (= |(r, Z1)|
   (+ 0.0
      1.0
      (* |(r, Z2)| 1.0)
      (* |(r, Z2)| |(r,Z2,r)| 1.0)
      (* |(s, Z2)| |(r,Z2,s)| 1.0))))
(assert (>= |(p, Z6)| 0.0))
(assert (= |(p, Z6)| (+ 0.0 1.0)))
(assert (>= |(r,Z10,s)| 0.0))
(assert (= |(r,Z10,s)| (+ 0.0 (* |(r,X,s)| |(r,X,r)| 1.0) (* |(s,X,s)| |(r,X,s)| 1.0))))
(assert (>= |(p, Z9)| 0.0))
(assert (= |(p, Z9)| (+ 0.0 1.0)))
(assert (>= |(r,Z10,r)| 0.0))
(assert (= |(r,Z10,r)| (+ 0.0 (* |(r,X,r)| |(r,X,r)| 1.0) (* |(s,X,r)| |(r,X,s)| 1.0))))
(assert (>= |(r, Z10)| 0.0))
(assert (= |(r, Z10)|
   (+ 0.0
      1.0
      (* |(r, X)| 1.0)
      (* |(r, X)| |(r,X,r)| 1.0)
      (* |(s, X)| |(r,X,s)| 1.0))))
(assert (>= |(s, Z7)| 0.0))
(assert (= |(s, Z7)|
   (+ 0.0
      1.0
      (* |(s, Z8)| 1.0)
      (* |(r, Z8)| |(s,Z8,r)| 1.0)
      (* |(s, Z8)| |(s,Z8,s)| 1.0))))
(assert (>= |(r,Z7,s)| 0.0))
(assert (= |(r,Z7,s)|
   (+ 0.0 (* |(r,Z8,s)| |(r,Z8,r)| 1.0) (* |(s,Z8,s)| |(r,Z8,s)| 1.0))))
(assert (>= |(r,Z7,r)| 0.0))
(assert (= |(r,Z7,r)|
   (+ 0.0 (* |(r,Z8,r)| |(r,Z8,r)| 1.0) (* |(s,Z8,r)| |(r,Z8,s)| 1.0))))
(assert (>= |(s,Z9,s)| 0.0))
(assert (= |(s,Z9,s)|
   (+ 0.0 (* |(r,Z10,s)| |(s,Z10,r)| 1.0) (* |(s,Z10,s)| |(s,Z10,s)| 1.0))))
(assert (>= |(s, Z4)| 0.0))
(assert (= |(s, Z4)|
   (+ 0.0
      1.0
      (* |(s, Z5)| 1.0)
      (* |(r, Z5)| |(s,Z5,r)| 1.0)
      (* |(s, Z5)| |(s,Z5,s)| 1.0))))
(assert (>= |(s,Z9,r)| 0.0))
(assert (= |(s,Z9,r)|
   (+ 0.0 (* |(r,Z10,r)| |(s,Z10,r)| 1.0) (* |(s,Z10,r)| |(s,Z10,s)| 1.0))))
(assert (>= |(r,Z3,s)| 0.0))
(assert (= |(r,Z3,s)|
   (+ 0.0 (* |(r,Z4,s)| |(r,Z4,r)| 1.0) (* |(s,Z4,s)| |(r,Z4,s)| 1.0))))
(assert (>= |(r,Z3,r)| 0.0))
(assert (= |(r,Z3,r)|
   (+ 0.0 (* |(r,Z4,r)| |(r,Z4,r)| 1.0) (* |(s,Z4,r)| |(r,Z4,s)| 1.0))))
(assert (>= |(s,Z5,s)| 0.0))
(assert (= |(s,Z5,s)|
   (+ 0.0 (* |(r,Z6,s)| |(s,Z6,r)| 1.0) (* |(s,Z6,s)| |(s,Z6,s)| 1.0))))
(assert (>= |(s,Z5,r)| 0.0))
(assert (= |(s,Z5,r)|
   (+ 0.0 (* |(r,Z6,r)| |(s,Z6,r)| 1.0) (* |(s,Z6,r)| |(s,Z6,s)| 1.0))))
(assert (>= |(s,Y,p)| 0.0))
(assert (= |(s,Y,p)| (+ 0.0 1.0)))
(assert (>= |(s,Z1,s)| 0.0))
(assert (= |(s,Z1,s)|
   (+ 0.0 (* |(r,Z2,s)| |(s,Z2,r)| 1.0) (* |(s,Z2,s)| |(s,Z2,s)| 1.0))))
(assert (>= |(s,Z1,r)| 0.0))
(assert (= |(s,Z1,r)|
   (+ 0.0 (* |(r,Z2,r)| |(s,Z2,r)| 1.0) (* |(s,Z2,r)| |(s,Z2,s)| 1.0))))
(assert (>= |(p, Z2)| 0.0))
(assert (= |(p, Z2)| (+ 0.0 1.0)))
(assert (>= |(p, Y)| 0.0))
(assert (= |(p, Y)|
   (+ 0.0
      1.0
      (* |(s, Z1)| 1.0)
      (* |(r, Y)| |(s,Z1,r)| 1.0)
      (* |(s, Y)| |(s,Z1,s)| 1.0))))
(assert (>= |(p, Z3)| 0.0))
(assert (= |(p, Z3)| (+ 0.0 1.0)))
(assert (>= |(r, Z5)| 0.0))
(assert (= |(r, Z5)|
   (+ 0.0
      1.0
      (* |(r, Z6)| 1.0)
      (* |(r, Z6)| |(r,Z6,r)| 1.0)
      (* |(s, Z6)| |(r,Z6,s)| 1.0))))
(assert (>= |(p, Z10)| 0.0))
(assert (= |(p, Z10)| (+ 0.0 1.0)))
(assert (>= |(r, Z8)| 0.0))
(assert (= |(r, Z8)|
   (+ 0.0
      1.0
      (* |(r, Z9)| 1.0)
      (* |(r, Z9)| |(r,Z9,r)| 1.0)
      (* |(s, Z9)| |(r,Z9,s)| 1.0))))
(assert (>= |(s, Y)| 0.0))
(assert (= |(s, Y)| (+ 0.0 1.0)))
(assert (>= |(r, Z2)| 0.0))
(assert (= |(r, Z2)|
   (+ 0.0
      1.0
      (* |(r, Z3)| 1.0)
      (* |(r, Z3)| |(r,Z3,r)| 1.0)
      (* |(s, Z3)| |(r,Z3,s)| 1.0))))
(assert (>= |(r, X)| 0.0))
(assert (= |(r, X)| (+ 0.0 1.0)))
(assert (>= |(r,Z8,s)| 0.0))
(assert (= |(r,Z8,s)|
   (+ 0.0 (* |(r,Z9,s)| |(r,Z9,r)| 1.0) (* |(s,Z9,s)| |(r,Z9,s)| 1.0))))
(assert (>= |(r,Z8,r)| 0.0))
(assert (= |(r,Z8,r)|
   (+ 0.0 (* |(r,Z9,r)| |(r,Z9,r)| 1.0) (* |(s,Z9,r)| |(r,Z9,s)| 1.0))))
(assert (>= |(r,X,r)| 0.0))
(assert (= |(r,X,r)| (+ 0.0 (/ 3.0 4.0))))
(assert (>= |(r,Z4,s)| 0.0))
(assert (= |(r,Z4,s)|
   (+ 0.0 (* |(r,Z5,s)| |(r,Z5,r)| 1.0) (* |(s,Z5,s)| |(r,Z5,s)| 1.0))))
(assert (>= |(p, Z7)| 0.0))
(assert (= |(p, Z7)| (+ 0.0 1.0)))
(assert (>= |(r,Z4,r)| 0.0))
(assert (= |(r,Z4,r)|
   (+ 0.0 (* |(r,Z5,r)| |(r,Z5,r)| 1.0) (* |(s,Z5,r)| |(r,Z5,s)| 1.0))))
(assert (>= |(s,Z6,s)| 0.0))
(assert (= |(s,Z6,s)|
   (+ 0.0 (* |(r,Z7,s)| |(s,Z7,r)| 1.0) (* |(s,Z7,s)| |(s,Z7,s)| 1.0))))
(assert (>= |(s,Z6,r)| 0.0))
(assert (= |(s,Z6,r)|
   (+ 0.0 (* |(r,Z7,r)| |(s,Z7,r)| 1.0) (* |(s,Z7,r)| |(s,Z7,s)| 1.0))))
(assert (>= |(s, Z5)| 0.0))
(assert (= |(s, Z5)|
   (+ 0.0
      1.0
      (* |(s, Z6)| 1.0)
      (* |(r, Z6)| |(s,Z6,r)| 1.0)
      (* |(s, Z6)| |(s,Z6,s)| 1.0))))
(assert (>= |(r,X,s)| 0.0))
(assert (= |(r,X,s)| (+ 0.0 (/ 1.0 4.0))))
(assert (>= |(s,Z2,s)| 0.0))
(assert (= |(s,Z2,s)|
   (+ 0.0 (* |(r,Z3,s)| |(s,Z3,r)| 1.0) (* |(s,Z3,s)| |(s,Z3,s)| 1.0))))
(assert (>= |(p, Z1)| 0.0))
(assert (= |(p, Z1)| (+ 0.0 1.0)))
(assert (>= |(s,Z2,r)| 0.0))
(assert (= |(s,Z2,r)|
   (+ 0.0 (* |(r,Z3,r)| |(s,Z3,r)| 1.0) (* |(s,Z3,r)| |(s,Z3,s)| 1.0))))
(assert (>= |(s, Z8)| 0.0))
(assert (= |(s, Z8)|
   (+ 0.0
      1.0
      (* |(s, Z9)| 1.0)
      (* |(r, Z9)| |(s,Z9,r)| 1.0)
      (* |(s, Z9)| |(s,Z9,s)| 1.0))))
(assert (>= |(p, Z4)| 0.0))
(assert (= |(p, Z4)| (+ 0.0 1.0)))
(assert (>= |(r, Z6)| 0.0))
(assert (= |(r, Z6)|
   (+ 0.0
      1.0
      (* |(r, Z7)| 1.0)
      (* |(r, Z7)| |(r,Z7,r)| 1.0)
      (* |(s, Z7)| |(r,Z7,s)| 1.0))))
(assert (>= |(s, Z2)| 0.0))
(assert (= |(s, Z2)|
   (+ 0.0
      1.0
      (* |(s, Z3)| 1.0)
      (* |(r, Z3)| |(s,Z3,r)| 1.0)
      (* |(s, Z3)| |(s,Z3,s)| 1.0))))
(check-sat)
(exit)
